NAME : n40w60.003.408.tour
COMMENT : Length = 408
COMMENT : Found by LKH [Keld Helsgaun] Tue May  2 05:18:26 2017
TYPE : TOUR
DIMENSION : 41
TOUR_SECTION
1
7
19
13
37
11
9
36
28
35
29
17
18
20
40
27
34
23
26
24
5
2
25
31
39
15
38
10
33
32
21
8
16
3
14
30
4
6
22
12
41
-1
EOF
